p cnf 32 92
a 1 3 0
e 2 4 5 6 7 8 9 10 11 12 13 14 15 16 17 18 19 20 21 22 23 24 25 26 27 28 29 30 31 32 0
-3 -4 -5 0
3 4 -5 0
-3 4 5 0
3 -4 5 0
-6 -2 0
-6 5 0
2 -5 6 0
-7 1 0
-7 -6 0
-1 6 7 0
-9 -10 -11 0
9 10 -11 0
-9 10 11 0
9 -10 11 0
-12 8 0
-12 11 0
-8 -11 12 0
1 12 -13 0
-1 -12 -13 0
1 -12 13 0
-1 12 13 0
15 14 0
15 8 0
-14 -8 -15 0
-13 -15 -16 0
13 15 -16 0
-13 15 16 0
13 -15 16 0
5 1 -17 0
-5 -1 -17 0
5 -1 17 0
-5 1 17 0
-18 -3 0
-18 -8 0
3 8 18 0
17 18 -19 0
-17 -18 -19 0
17 -18 19 0
-17 18 19 0
16 19 -20 0
-16 -19 -20 0
16 -19 20 0
-16 19 20 0
21 -7 0
21 -20 0
7 20 -21 0
-22 2 0
-22 12 0
-2 -12 22 0
23 -21 0
23 22 0
21 -22 -23 0
1 10 -24 0
-1 -10 -24 0
1 -10 24 0
-1 10 24 0
-25 -24 0
-25 18 0
24 -18 25 0
26 -5 0
26 -9 0
5 9 -26 0
25 26 -27 0
-25 -26 -27 0
25 -26 27 0
-25 26 27 0
-28 2 0
-28 1 0
-2 -1 28 0
8 -29 0
-8 -29 0
28 -29 -30 0
-28 29 -30 0
28 29 30 0
-28 -29 30 0
-27 30 -31 0
27 -30 -31 0
-27 -30 31 0
27 30 31 0
23 31 -32 0
-23 -31 -32 0
23 -31 32 0
-23 31 32 0
7 -19 -9 26 2 -21 0
-9 -1 24 -16 29 0
-13 -18 -20 -26 11 -4 0
22 19 25 -2 -15 0
-8 27 3 -9 13 0
-29 -27 -12 -21 -4 -3 0
-2 25 11 24 0
-18 -15 -3 29 22 -7 0
32 0
